c Result of efficient AIG-to-CNF conversion using package CNF
p cnf 453 1672
-2 3 257 362 380 0
-2 -3 -257 362 380 0
2 -380 0
2 -3 257 0
2 -362 0
2 3 -257 0
3 -417 4 229 247 0
-3 -247 0
-3 417 0
-3 -229 0
-3 -4 0
-4 5 175 217 224 0
4 -224 0
4 -217 0
4 -5 0
4 -175 0
-5 6 -156 0
-5 6 166 171 0
5 -6 0
5 156 -166 0
5 156 -171 0
6 -416 7 0
6 7 -79 0
6 7 -118 0
-6 -7 0
-6 416 79 118 0
-7 416 8 0
-7 8 -19 0
-7 8 -67 0
7 -8 0
7 -416 19 67 0
-8 9 15 17 18 0
8 -18 0
8 -9 0
8 -17 0
8 -15 0
-9 413 414 10 12 0
9 -413 0
9 -12 0
9 -10 0
9 -414 0
-10 405 411 412 11 0
10 -11 0
10 -412 0
10 -405 0
10 -411 0
-11 409 410 415 0
11 -409 0
11 -415 0
11 -410 0
-12 406 407 408 13 0
12 -13 0
12 -408 0
12 -406 0
12 -407 0
-13 401 402 14 0
13 -14 0
13 -402 0
13 -401 0
-14 397 398 403 404 0
14 -404 0
14 -403 0
14 -397 0
14 -398 0
-15 395 399 400 16 0
15 -16 0
15 -400 0
15 -395 0
15 -399 0
-16 393 394 0
16 -393 0
16 -394 0
-17 389 396 0
17 -389 0
17 -396 0
-18 390 391 392 0
18 -390 0
18 -392 0
18 -391 0
-19 -417 20 0
-19 417 36 0
19 -417 -20 0
19 417 -36 0
-20 418 22 0
-20 -418 21 0
20 -418 -21 0
20 418 -22 0
21 419 420 -452 0
-21 452 0
-21 -420 0
-21 -419 0
22 419 -23 0
22 -419 -32 0
-22 -419 32 0
-22 419 23 0
23 420 -24 0
23 -420 -30 0
-23 -420 30 0
-23 420 24 0
24 25 -29 0
24 -25 29 0
-24 -25 -29 0
-24 25 29 0
25 -417 -449 0
25 -449 -26 0
25 -417 -26 0
-25 417 26 0
-25 449 26 0
-25 417 449 0
26 -418 -450 0
26 -450 -27 0
26 -418 -27 0
-26 418 27 0
-26 450 27 0
-26 418 450 0
27 -419 -451 0
27 -451 -28 0
27 -419 -28 0
-27 419 28 0
-27 451 28 0
-27 419 451 0
28 -420 -452 0
-28 420 0
-28 452 0
29 416 -448 0
29 -416 448 0
-29 -416 -448 0
-29 416 448 0
30 26 -31 0
30 -26 31 0
-30 -26 -31 0
-30 26 31 0
31 417 -449 0
31 -417 449 0
-31 -417 -449 0
-31 417 449 0
-32 420 34 0
-32 -420 -452 -33 0
-32 -420 452 33 0
32 420 -34 0
32 -420 452 -33 0
32 -420 -452 33 0
33 419 -451 0
33 -419 451 0
-33 -419 -451 0
-33 419 451 0
34 27 -35 0
34 -27 35 0
-34 -27 -35 0
-34 27 35 0
35 418 -450 0
35 -418 450 0
-35 -418 -450 0
-35 418 450 0
36 418 -37 0
36 -418 -56 0
-36 -418 56 0
-36 418 37 0
37 419 -38 0
37 -419 -51 0
-37 -419 51 0
-37 419 38 0
38 -420 -49 0
38 420 -39 0
-38 420 39 0
-38 -420 49 0
-39 -40 -48 0
-39 40 48 0
39 40 -48 0
39 -40 48 0
40 -409 -441 0
40 -441 -41 0
40 -409 -41 0
-40 409 41 0
-40 441 41 0
-40 409 441 0
41 -410 -442 0
41 -442 -42 0
41 -410 -42 0
-41 410 42 0
-41 442 42 0
-41 410 442 0
42 -411 -443 0
42 -443 -43 0
42 -411 -43 0
-42 411 43 0
-42 443 43 0
-42 411 443 0
43 -412 -444 0
43 -444 -44 0
43 -412 -44 0
-43 412 44 0
-43 444 44 0
-43 412 444 0
44 -413 -445 0
44 -445 -45 0
44 -413 -45 0
-44 413 45 0
-44 445 45 0
-44 413 445 0
45 -414 -446 0
45 -446 -46 0
45 -414 -46 0
-45 414 46 0
-45 446 46 0
-45 414 446 0
46 -415 -447 0
46 -447 -47 0
46 -415 -47 0
-46 415 47 0
-46 447 47 0
-46 415 447 0
47 -416 -448 0
47 -448 -25 0
47 -416 -25 0
-47 416 25 0
-47 448 25 0
-47 416 448 0
48 408 -440 0
48 -408 440 0
-48 -408 -440 0
-48 408 440 0
-49 -41 -50 0
-49 41 50 0
49 41 -50 0
49 -41 50 0
50 409 -441 0
50 -409 441 0
-50 -409 -441 0
-50 409 441 0
51 -420 -54 0
51 420 -52 0
-51 420 52 0
-51 -420 54 0
-52 -42 -53 0
-52 42 53 0
52 42 -53 0
52 -42 53 0
53 410 -442 0
53 -410 442 0
-53 -410 -442 0
-53 410 442 0
-54 -43 -55 0
-54 43 55 0
54 43 -55 0
54 -43 55 0
55 411 -443 0
55 -411 443 0
-55 -411 -443 0
-55 411 443 0
56 419 -57 0
56 -419 -62 0
-56 -419 62 0
-56 419 57 0
57 -420 -60 0
57 420 -58 0
-57 420 58 0
-57 -420 60 0
-58 -44 -59 0
-58 44 59 0
58 44 -59 0
58 -44 59 0
59 412 -444 0
59 -412 444 0
-59 -412 -444 0
-59 412 444 0
-60 -45 -61 0
-60 45 61 0
60 45 -61 0
60 -45 61 0
61 413 -445 0
61 -413 445 0
-61 -413 -445 0
-61 413 445 0
62 -420 -65 0
62 420 -63 0
-62 420 63 0
-62 -420 65 0
-63 -46 -64 0
-63 46 64 0
63 46 -64 0
63 -46 64 0
64 414 -446 0
64 -414 446 0
-64 -414 -446 0
-64 414 446 0
65 47 -66 0
65 -47 66 0
-65 -47 -66 0
-65 47 66 0
66 415 -447 0
66 -415 447 0
-66 -415 -447 0
-66 415 447 0
-67 417 72 0
-67 -417 68 0
67 -417 -68 0
67 417 -72 0
68 418 -69 0
-68 -418 0
-68 69 0
-69 -419 -71 0
-69 419 70 0
69 419 -70 0
69 -419 71 0
70 420 -30 0
70 -420 -34 0
-70 -420 34 0
-70 420 30 0
71 420 -451 0
71 -420 -452 0
-71 -420 452 0
-71 420 451 0
72 418 -73 0
72 -418 -76 0
-72 -418 76 0
-72 418 73 0
73 419 -74 0
73 -419 -75 0
-73 -419 75 0
-73 419 74 0
74 -420 -52 0
74 420 -49 0
-74 420 49 0
-74 -420 52 0
75 -420 -58 0
75 420 -54 0
-75 420 54 0
-75 -420 58 0
76 419 -77 0
76 -419 -78 0
-76 -419 78 0
-76 419 77 0
77 -420 -63 0
77 420 -60 0
-77 420 60 0
-77 -420 63 0
78 -420 -24 0
78 420 -65 0
-78 420 65 0
-78 -420 24 0
79 -417 -80 0
79 -417 -111 0
-79 417 0
-79 80 111 0
80 418 -81 0
80 -418 -100 0
-80 -418 100 0
-80 418 81 0
81 419 -82 0
81 -419 -95 0
-81 -419 95 0
-81 419 82 0
82 -420 -93 0
82 420 -83 0
-82 420 83 0
-82 -420 93 0
-83 -84 -92 0
-83 84 92 0
83 84 -92 0
83 -84 92 0
84 -401 -433 0
84 -433 -85 0
84 -401 -85 0
-84 401 85 0
-84 433 85 0
-84 401 433 0
85 -402 -434 0
85 -434 -86 0
85 -402 -86 0
-85 402 86 0
-85 434 86 0
-85 402 434 0
86 -403 -435 0
86 -435 -87 0
86 -403 -87 0
-86 403 87 0
-86 435 87 0
-86 403 435 0
87 -404 -436 0
87 -436 -88 0
87 -404 -88 0
-87 404 88 0
-87 436 88 0
-87 404 436 0
88 -405 -437 0
88 -437 -89 0
88 -405 -89 0
-88 405 89 0
-88 437 89 0
-88 405 437 0
89 -406 -438 0
89 -438 -90 0
89 -406 -90 0
-89 406 90 0
-89 438 90 0
-89 406 438 0
90 -407 -439 0
90 -439 -91 0
90 -407 -91 0
-90 407 91 0
-90 439 91 0
-90 407 439 0
91 -408 -440 0
91 -440 -40 0
91 -408 -40 0
-91 408 40 0
-91 440 40 0
-91 408 440 0
92 400 -432 0
92 -400 432 0
-92 -400 -432 0
-92 400 432 0
-93 -85 -94 0
-93 85 94 0
93 85 -94 0
93 -85 94 0
94 401 -433 0
94 -401 433 0
-94 -401 -433 0
-94 401 433 0
95 -420 -98 0
95 420 -96 0
-95 420 96 0
-95 -420 98 0
-96 -86 -97 0
-96 86 97 0
96 86 -97 0
96 -86 97 0
97 402 -434 0
97 -402 434 0
-97 -402 -434 0
-97 402 434 0
-98 -87 -99 0
-98 87 99 0
98 87 -99 0
98 -87 99 0
99 403 -435 0
99 -403 435 0
-99 -403 -435 0
-99 403 435 0
100 419 -101 0
100 -419 -106 0
-100 -419 106 0
-100 419 101 0
101 -420 -104 0
101 420 -102 0
-101 420 102 0
-101 -420 104 0
-102 -88 -103 0
-102 88 103 0
102 88 -103 0
102 -88 103 0
103 404 -436 0
103 -404 436 0
-103 -404 -436 0
-103 404 436 0
-104 -89 -105 0
-104 89 105 0
104 89 -105 0
104 -89 105 0
105 405 -437 0
105 -405 437 0
-105 -405 -437 0
-105 405 437 0
106 -420 -109 0
106 420 -107 0
-106 420 107 0
-106 -420 109 0
-107 -90 -108 0
-107 90 108 0
107 90 -108 0
107 -90 108 0
108 406 -438 0
108 -406 438 0
-108 -406 -438 0
-108 406 438 0
-109 -91 -110 0
-109 91 110 0
109 91 -110 0
109 -91 110 0
110 407 -439 0
110 -407 439 0
-110 -407 -439 0
-110 407 439 0
111 418 -112 0
111 -418 -115 0
-111 -418 115 0
-111 418 112 0
112 419 -113 0
112 -419 -114 0
-112 -419 114 0
-112 419 113 0
113 -420 -96 0
113 420 -93 0
-113 420 93 0
-113 -420 96 0
114 -420 -102 0
114 420 -98 0
-114 420 98 0
-114 -420 102 0
115 419 -116 0
115 -419 -117 0
-115 -419 117 0
-115 419 116 0
116 -420 -107 0
116 420 -104 0
-116 420 104 0
-116 -420 107 0
117 420 -109 0
117 -420 -39 0
-117 -420 39 0
-117 420 109 0
118 -418 119 0
118 119 -138 0
118 119 -153 0
-118 -119 0
-118 418 138 153 0
-119 417 -132 0
-119 417 418 0
-119 417 -120 0
119 -417 0
119 -418 120 132 0
120 419 -121 0
120 -419 -129 0
-120 -419 129 0
-120 419 121 0
121 -420 -127 0
121 420 -122 0
-121 420 122 0
-121 -420 127 0
-122 -123 -126 0
-122 123 126 0
122 123 -126 0
122 -123 126 0
123 -398 -430 0
123 -430 -124 0
123 -398 -124 0
-123 398 124 0
-123 430 124 0
-123 398 430 0
124 -399 -431 0
124 -431 -125 0
124 -399 -125 0
-124 399 125 0
-124 431 125 0
-124 399 431 0
125 -400 -432 0
125 -432 -84 0
125 -400 -84 0
-125 400 84 0
-125 432 84 0
-125 400 432 0
126 397 -429 0
126 -397 429 0
-126 -397 -429 0
-126 397 429 0
-127 -124 -128 0
-127 124 128 0
127 124 -128 0
127 -124 128 0
128 398 -430 0
128 -398 430 0
-128 -398 -430 0
-128 398 430 0
129 420 -130 0
129 -420 -83 0
-129 -420 83 0
-129 420 130 0
-130 -125 -131 0
-130 125 131 0
130 125 -131 0
130 -125 131 0
131 399 -431 0
131 -399 431 0
-131 -399 -431 0
-131 399 431 0
132 419 -133 0
132 -419 -137 0
-132 -419 137 0
-132 419 133 0
133 420 -134 0
133 -420 -122 0
-133 -420 122 0
-133 420 134 0
-134 -135 -136 0
-134 135 136 0
134 135 -136 0
134 -135 136 0
135 -397 -429 0
135 -429 -123 0
135 -397 -123 0
-135 397 123 0
-135 429 123 0
-135 397 429 0
136 396 -428 0
136 -396 428 0
-136 -396 -428 0
-136 396 428 0
137 -420 -130 0
137 420 -127 0
-137 420 127 0
-137 -420 130 0
138 -419 -139 0
138 419 -146 0
-138 419 146 0
-138 -419 139 0
139 -420 -144 0
139 420 -140 0
-139 420 140 0
-139 -420 144 0
-140 -141 -143 0
-140 141 143 0
140 141 -143 0
140 -141 143 0
141 -395 -427 0
141 -427 -142 0
141 -395 -142 0
-141 395 142 0
-141 427 142 0
-141 395 427 0
142 -396 -428 0
142 -428 -135 0
142 -396 -135 0
-142 396 135 0
-142 428 135 0
-142 396 428 0
143 394 -426 0
143 -394 426 0
-143 -394 -426 0
-143 394 426 0
-144 -142 -145 0
-144 142 145 0
144 142 -145 0
144 -142 145 0
145 395 -427 0
145 -395 427 0
-145 -395 -427 0
-145 395 427 0
146 -420 -151 0
146 420 -147 0
-146 420 147 0
-146 -420 151 0
-147 -148 -150 0
-147 148 150 0
147 148 -150 0
147 -148 150 0
148 -393 -425 0
148 -425 -149 0
148 -393 -149 0
-148 393 149 0
-148 425 149 0
-148 393 425 0
149 -394 -426 0
149 -426 -141 0
149 -394 -141 0
-149 394 141 0
-149 426 141 0
-149 394 426 0
150 392 -424 0
150 -392 424 0
-150 -392 -424 0
-150 392 424 0
-151 -149 -152 0
-151 149 152 0
151 149 -152 0
151 -149 152 0
152 393 -425 0
152 -393 425 0
-152 -393 -425 0
-152 393 425 0
153 419 -154 0
153 -419 -155 0
-153 -419 155 0
-153 419 154 0
154 420 -151 0
154 -420 -140 0
-154 -420 140 0
-154 420 151 0
155 420 -144 0
155 -420 -134 0
-155 -420 134 0
-155 420 144 0
-156 416 8 0
-156 8 -157 0
-156 8 -163 0
156 -8 0
156 -416 157 163 0
-157 417 160 0
-157 -417 158 0
157 -417 -158 0
157 417 -160 0
158 418 -159 0
-158 -418 0
-158 159 0
159 419 -420 452 0
159 419 420 -451 0
-159 -419 0
-159 -420 -452 0
-159 420 451 0
160 418 -161 0
160 -418 -162 0
-160 -418 162 0
-160 418 161 0
161 419 -75 0
161 -419 -77 0
-161 -419 77 0
-161 419 75 0
162 -419 -70 0
162 419 -78 0
-162 419 78 0
-162 -419 70 0
-163 417 165 0
-163 -417 164 0
163 -417 -164 0
163 417 -165 0
164 418 419 420 -452 0
-164 452 0
-164 -420 0
-164 -418 0
-164 -419 0
165 -418 -22 0
165 418 -56 0
-165 418 56 0
-165 -418 22 0
-166 416 417 0
-166 416 167 170 0
166 -416 0
166 -417 -167 0
166 -417 -170 0
167 418 -168 0
167 -418 -169 0
-167 -418 169 0
-167 418 168 0
168 419 -114 0
168 -419 -116 0
-168 -419 116 0
-168 419 114 0
169 -419 -74 0
169 419 -117 0
-169 419 117 0
-169 -419 74 0
170 -418 -37 0
170 418 -100 0
-170 418 100 0
-170 -418 37 0
171 -418 173 0
171 -132 173 0
171 -172 173 0
-171 -173 0
-171 418 132 172 0
172 -419 -121 0
172 419 -155 0
-172 419 155 0
-172 -419 121 0
-173 417 -174 0
-173 417 418 0
-173 417 -81 0
173 -417 0
173 -418 81 174 0
174 -419 -113 0
174 419 -129 0
-174 419 129 0
-174 -419 113 0
175 8 -206 0
175 417 8 -176 0
-175 -8 0
-175 -417 206 0
-175 176 206 0
-176 -177 200 0
-176 -188 200 0
-176 190 200 0
176 -200 0
176 177 188 -190 0
177 -416 178 181 0
-177 416 0
-177 -178 0
-177 -181 0
-178 -417 179 0
-178 417 180 0
178 -417 -179 0
178 417 -180 0
-179 418 162 0
-179 -418 159 0
179 -418 -159 0
179 418 -162 0
180 -418 -161 0
180 418 -169 0
-180 418 169 0
-180 -418 161 0
-181 417 185 0
-181 -417 182 0
181 -417 -182 0
181 417 -185 0
182 418 -183 0
182 -418 -184 0
-182 -418 184 0
-182 418 183 0
183 -419 -23 0
183 419 -62 0
-183 419 62 0
-183 -419 23 0
184 419 -32 0
184 -419 420 -452 0
-184 -419 -420 0
-184 419 32 0
-184 -419 452 0
185 418 -186 0
185 -418 -187 0
-185 -418 187 0
-185 418 186 0
186 -419 -38 0
186 419 -106 0
-186 419 106 0
-186 -419 38 0
187 419 -51 0
187 -419 -57 0
-187 -419 57 0
-187 419 51 0
188 -418 172 189 0
-188 418 0
-188 -189 0
-188 -172 0
189 -419 -133 0
189 419 -139 0
-189 419 139 0
-189 -419 133 0
-190 418 419 192 0
-190 418 -419 191 0
190 -418 0
190 -419 -191 0
190 419 -192 0
-191 146 154 0
191 -146 0
191 -154 0
-192 -420 193 198 0
-192 193 194 198 0
192 -198 0
192 -193 0
192 420 -194 0
193 -420 -147 0
-193 420 0
-193 147 0
-194 -195 -197 0
-194 195 197 0
194 195 -197 0
194 -195 197 0
195 -391 -423 0
195 -423 -196 0
195 -391 -196 0
-195 391 196 0
-195 423 196 0
-195 391 423 0
196 -392 -424 0
196 -424 -148 0
196 -392 -148 0
-196 392 148 0
-196 424 148 0
-196 392 424 0
197 390 -422 0
197 -390 422 0
-197 -390 -422 0
-197 390 422 0
-198 -196 -199 0
-198 196 199 0
198 196 -199 0
198 -196 199 0
199 391 -423 0
199 -391 423 0
-199 -391 -423 0
-199 391 423 0
200 416 -418 -153 0
200 416 418 -201 0
-200 -416 0
-200 -418 153 0
-200 418 201 0
-201 419 202 0
-201 -419 193 205 0
201 -419 -193 0
201 419 -202 0
201 -419 -205 0
-202 -420 194 0
-202 420 203 204 0
-202 420 -203 -204 0
202 -420 -194 0
202 420 203 -204 0
202 420 -203 204 0
203 -390 -422 0
203 -422 -195 0
203 -390 -195 0
-203 390 195 0
-203 422 195 0
-203 390 422 0
-204 -389 -421 0
-204 389 421 0
204 389 -421 0
204 -389 421 0
205 420 -198 0
-205 -420 0
-205 198 0
-206 416 210 0
-206 -177 207 210 0
206 -210 0
206 -416 177 0
206 -416 -207 0
-207 417 209 0
-207 -417 208 0
207 -417 -208 0
207 417 -209 0
208 -418 -69 0
208 418 -76 0
-208 -418 69 0
-208 418 76 0
209 -418 -73 0
209 418 -115 0
-209 418 115 0
-209 -418 73 0
210 -417 -211 0
210 416 -417 -216 0
-210 417 0
-210 -416 211 0
-210 211 216 0
211 177 -212 0
-211 -177 0
-211 212 0
212 418 -174 0
212 -418 -213 0
212 418 -215 0
-212 -418 213 0
-212 418 174 215 0
-213 168 214 0
213 -168 0
213 -214 0
214 419 -95 0
214 -419 -101 0
-214 -419 101 0
-214 419 95 0
215 -419 -82 0
215 419 -137 0
-215 419 137 0
-215 -419 82 0
216 -418 -112 0
216 418 -120 0
-216 418 120 0
-216 -418 112 0
217 416 8 -221 0
217 -416 8 -218 0
-217 -8 0
-217 416 221 0
-217 -416 218 0
-218 417 220 0
-218 -417 219 0
218 -417 -219 0
218 417 -220 0
219 418 -184 0
-219 -418 0
-219 184 0
220 -418 -183 0
220 418 -187 0
-220 418 187 0
-220 -418 183 0
-221 417 223 0
-221 222 223 0
221 -223 0
221 -417 -222 0
222 -418 -186 0
222 418 -214 0
-222 418 214 0
-222 -418 186 0
223 417 -418 -215 0
223 417 418 -189 0
-223 -417 0
-223 -418 215 0
-223 418 189 0
224 -225 226 0
224 417 -212 226 0
-224 -226 0
-224 -417 225 0
-224 212 225 0
-225 416 417 0
-225 416 180 185 0
225 -416 0
225 -417 -180 0
225 -417 -185 0
-226 416 8 0
-226 8 -227 0
-226 8 -228 0
226 -8 0
226 -416 227 228 0
227 417 -182 0
-227 -417 0
-227 182 0
228 417 -179 0
-228 -417 0
-228 179 0
-229 230 237 0
229 -230 0
229 -237 0
-230 231 234 0
230 -231 0
230 -234 0
231 416 8 -233 0
231 -416 8 -232 0
-231 -8 0
-231 416 233 0
-231 -416 232 0
232 417 -208 0
-232 -417 0
-232 208 0
-233 417 216 0
-233 -417 209 0
233 -417 -209 0
233 417 -216 0
234 416 8 -236 0
234 -416 8 -235 0
-234 -8 0
-234 416 236 0
-234 -416 235 0
235 417 -20 0
-235 -417 0
-235 20 0
-236 417 80 0
-236 -417 36 0
236 -417 -36 0
236 417 -80 0
-237 238 244 0
237 -238 0
237 -244 0
238 -240 241 0
238 417 -239 241 0
-238 -241 0
-238 239 240 0
-238 -417 240 0
-239 111 222 0
239 -111 0
239 -222 0
-240 416 417 0
-240 416 72 220 0
240 -416 0
240 -417 -72 0
240 -417 -220 0
-241 416 8 0
-241 8 -242 0
-241 8 -243 0
241 -8 0
241 -416 242 243 0
242 417 -68 0
-242 -417 0
-242 68 0
243 417 -219 0
-243 -417 0
-243 219 0
-244 -8 0
-244 -416 245 0
-244 207 245 0
244 8 -245 0
244 416 8 -207 0
-245 -416 -417 0
-245 416 246 0
-245 -416 164 0
245 416 -246 0
245 -416 417 -164 0
-246 417 170 0
-246 -417 165 0
246 -417 -165 0
246 417 -170 0
-247 248 251 0
247 -248 0
247 -251 0
248 416 8 -250 0
248 -416 8 -249 0
-248 -8 0
-248 416 250 0
-248 -416 249 0
249 417 -158 0
-249 -417 0
-249 158 0
-250 417 167 0
-250 -417 160 0
250 -417 -160 0
250 417 -167 0
-251 67 253 255 0
-251 -252 253 255 0
251 -255 0
251 -253 0
251 -67 252 0
-252 416 8 0
252 -416 0
252 -8 0
-253 -252 0
-253 163 228 254 0
253 -228 252 0
253 252 -254 0
253 -163 252 0
-254 19 178 0
254 -19 0
254 -178 0
-255 -252 256 0
-255 227 232 256 0
255 -256 0
255 -232 252 0
255 -227 252 0
-256 -252 0
-256 157 181 218 0
256 -181 252 0
256 -157 252 0
256 -218 252 0
257 -417 -258 0
-257 417 0
-257 258 0
-258 8 361 0
-258 8 259 307 0
258 -8 0
258 -259 -361 0
258 -307 -361 0
259 -417 -260 -287 0
259 -260 -287 -295 0
-259 287 0
-259 260 0
-259 417 295 0
-260 261 282 0
-260 -417 261 0
-260 261 268 0
260 -261 0
260 417 -268 -282 0
261 -417 -262 -264 -265 0
-261 265 0
-261 264 0
-261 417 0
-261 262 0
-262 418 263 0
262 -418 0
262 -263 0
-263 419 -420 452 0
-263 419 420 451 0
263 -419 0
263 -420 -452 0
263 420 -451 0
-264 418 419 420 452 0
264 -452 0
264 -420 0
264 -418 0
264 -419 0
-265 418 266 0
265 -418 0
265 -266 0
-266 419 267 0
-266 -419 420 452 0
266 -419 -420 0
266 419 -267 0
266 -419 -452 0
-267 -420 451 0
-267 420 450 0
267 420 -450 0
267 -420 -451 0
268 418 -275 0
268 -418 -269 -273 0
-268 -418 273 0
-268 418 275 0
-268 -418 269 0
269 -419 -270 0
269 419 -271 -272 0
-269 419 272 0
-269 -419 270 0
-269 419 271 0
270 420 -448 -449 0
270 -420 -449 -450 0
-270 449 0
-270 -420 450 0
-270 420 448 0
-271 -420 447 0
-271 420 446 0
271 420 -446 0
271 -420 -447 0
-272 -420 448 0
-272 420 447 0
272 420 -447 0
272 -420 -448 0
-273 -419 267 0
-273 419 274 0
273 419 -274 0
273 -419 -267 0
-274 -420 449 0
-274 420 448 0
274 420 -448 0
274 -420 -449 0
275 -276 -278 0
-275 276 0
-275 278 0
-276 -419 271 0
-276 419 277 0
276 419 -277 0
276 -419 -271 0
-277 -420 445 0
-277 420 444 0
277 420 -444 0
277 -420 -445 0
278 -419 -279 0
278 419 -280 -281 0
-278 419 281 0
-278 -419 279 0
-278 419 280 0
279 420 -444 -445 0
279 -420 -445 -446 0
-279 445 0
-279 -420 446 0
-279 420 444 0
-280 -420 443 0
-280 420 442 0
280 420 -442 0
280 -420 -443 0
-281 -420 444 0
-281 420 443 0
281 420 -443 0
281 -420 -444 0
-282 418 283 0
-282 -418 285 0
282 -418 -285 0
282 418 -283 0
-283 -419 272 0
-283 419 284 0
283 419 -284 0
283 -419 -272 0
-284 -420 446 0
-284 420 445 0
284 420 -445 0
284 -420 -446 0
285 -419 -71 0
285 419 -286 0
-285 -419 71 0
-285 419 286 0
-286 -420 450 0
-286 420 449 0
286 420 -449 0
286 -420 -450 0
287 -416 -288 -293 -294 0
-287 288 0
-287 294 0
-287 416 0
-287 293 0
288 -289 -291 -292 0
-288 289 0
-288 292 0
-288 291 0
-289 418 273 0
-289 -418 419 290 0
289 -418 -419 0
289 418 -273 0
289 -418 -290 0
-290 420 452 0
290 -420 0
290 -452 0
-291 417 262 0
291 -417 0
291 -262 0
-292 417 265 0
292 -417 0
292 -265 0
-293 418 285 0
293 -418 0
293 -285 0
-294 -418 263 0
-294 418 269 0
-294 -418 266 0
294 418 -269 0
294 -418 -263 -266 0
295 -418 -278 -300 0
295 418 -296 -300 0
-295 300 0
-295 -418 278 0
-295 418 296 0
296 -419 -297 0
296 419 -298 -299 0
-296 419 299 0
-296 -419 297 0
-296 419 298 0
297 420 -440 -441 0
297 -420 -441 -442 0
-297 441 0
-297 -420 442 0
-297 420 440 0
-298 -420 439 0
-298 420 438 0
298 420 -438 0
298 -420 -439 0
-299 -420 440 0
-299 420 439 0
299 420 -439 0
299 -420 -440 0
300 -264 -301 0
-300 264 0
-300 301 0
301 -418 -276 -304 0
301 418 -302 -304 0
-301 304 0
-301 418 302 0
-301 -418 276 0
-302 -419 280 0
-302 419 303 0
302 419 -303 0
302 -419 -280 0
-303 -420 441 0
-303 420 440 0
303 420 -440 0
303 -420 -441 0
-304 -418 283 0
-304 418 305 0
304 418 -305 0
304 -418 -283 0
-305 -419 281 0
-305 419 306 0
305 419 -306 0
305 -419 -281 0
-306 -420 442 0
-306 420 441 0
306 420 -441 0
306 -420 -442 0
307 -417 -340 -342 0
307 -308 -340 -342 0
-307 342 0
-307 340 0
-307 417 308 0
308 -309 -311 312 -325 0
-308 311 0
-308 325 0
-308 309 0
-308 -312 0
-309 -419 298 0
-309 419 310 0
309 419 -310 0
309 -419 -298 0
-310 -420 437 0
-310 420 436 0
310 420 -436 0
310 -420 -437 0
311 -296 -302 0
-311 296 0
-311 302 0
312 -418 313 0
312 -418 319 0
312 -418 317 0
-312 418 0
-312 -313 -317 -319 0
-313 -419 315 0
-313 419 314 0
-313 -419 316 0
313 419 -314 0
313 -419 -315 -316 0
314 420 -430 -431 0
314 -420 -431 -432 0
-314 431 0
-314 -420 432 0
-314 420 430 0
-315 -420 434 0
-315 420 433 0
315 420 -433 0
315 -420 -434 0
-316 -420 433 0
-316 420 432 0
316 420 -432 0
316 -420 -433 0
-317 419 316 0
-317 -419 318 0
317 -419 -318 0
317 419 -316 0
-318 -420 435 0
-318 420 434 0
318 420 -434 0
318 -420 -435 0
319 -275 -320 -322 0
-319 275 0
-319 322 0
-319 320 0
-320 -419 299 0
-320 419 321 0
320 419 -321 0
320 -419 -299 0
-321 -420 438 0
-321 420 437 0
321 420 -437 0
321 -420 -438 0
-322 419 323 0
-322 -419 324 0
322 -419 -324 0
322 419 -323 0
-323 -420 426 0
-323 420 425 0
323 420 -425 0
323 -420 -426 0
-324 -420 428 0
-324 420 427 0
324 420 -427 0
324 -420 -428 0
-325 418 332 0
-325 418 326 0
-325 418 335 0
325 -418 0
325 -326 -332 -335 0
326 -419 -327 -329 0
326 419 -328 -329 0
-326 329 0
-326 419 328 0
-326 -419 327 0
-327 -420 431 0
-327 420 430 0
327 420 -430 0
327 -420 -431 0
-328 -420 429 0
-328 420 428 0
328 420 -428 0
328 -420 -429 0
-329 -419 331 0
-329 419 330 0
-329 -419 328 0
329 419 -330 0
329 -419 -331 -328 0
330 420 -426 -427 0
330 -420 -427 -428 0
-330 427 0
-330 -420 428 0
-330 420 426 0
-331 -420 430 0
-331 420 429 0
331 420 -429 0
331 -420 -430 0
332 -317 -333 0
-332 317 0
-332 333 0
-333 419 315 0
-333 -419 334 0
333 -419 -334 0
333 419 -315 0
-334 -420 436 0
-334 420 435 0
334 420 -435 0
334 -420 -436 0
335 419 -336 -339 0
335 -419 -336 -338 0
-335 336 0
-335 419 339 0
-335 -419 338 0
336 -419 -337 0
336 419 -318 -334 0
-336 419 318 0
-336 -419 337 0
-336 419 334 0
337 420 -436 -437 0
337 -420 -437 -438 0
-337 437 0
-337 -420 438 0
-337 420 436 0
338 420 -423 0
338 -420 -424 0
-338 -420 424 0
-338 420 423 0
-339 -420 422 0
-339 420 421 0
339 420 -421 0
339 -420 -422 0
-340 268 341 0
-340 -417 341 0
-340 304 341 0
340 -341 0
340 417 -268 -304 0
341 -261 -293 0
-341 261 0
-341 293 0
342 417 -347 -359 0
342 -343 -347 -359 0
-342 359 0
-342 347 0
-342 -417 343 0
343 -289 -344 -345 -346 0
-343 289 0
-343 346 0
-343 345 0
-343 344 0
344 -268 -301 0
-344 268 0
-344 301 0
345 -418 -311 0
345 418 -309 -336 0
-345 418 309 0
-345 -418 311 0
-345 418 336 0
-346 -418 305 0
-346 418 320 0
346 418 -320 0
346 -418 -305 0
347 418 -352 0
347 -418 -336 -348 0
-347 -418 348 0
-347 418 352 0
-347 -418 336 0
-348 -417 349 0
-348 417 350 0
-348 417 326 0
348 -417 -349 0
348 417 -326 -350 0
349 -278 -309 -320 0
-349 278 0
-349 320 0
-349 309 0
-350 -419 351 0
-350 419 331 0
350 419 -331 0
350 -419 -351 0
-351 -420 432 0
-351 420 431 0
351 420 -431 0
351 -420 -432 0
352 -417 -313 -358 0
352 417 -313 -353 0
-352 313 0
-352 -417 358 0
-352 417 353 0
353 420 -322 -354 0
353 -425 -322 -354 0
-353 354 0
-353 322 0
-353 -420 425 0
354 419 -355 -357 0
354 -419 -356 -357 0
-354 357 0
-354 -419 356 0
-354 419 355 0
355 420 -423 0
355 -423 -424 0
-355 423 0
-355 -420 424 0
356 420 -425 -426 0
356 -420 -426 -427 0
-356 426 0
-356 -420 427 0
-356 420 425 0
-357 420 424 0
-357 419 420 422 0
357 -420 0
357 -419 -424 0
357 -422 -424 0
358 -296 -332 0
-358 296 0
-358 332 0
359 418 -350 -360 0
359 -418 -333 -360 0
-359 360 0
-359 418 350 0
-359 -418 333 0
360 416 -282 -294 0
-360 -416 0
-360 294 0
-360 282 0
-361 -417 282 0
-361 417 346 0
361 417 -346 0
361 -417 -282 0
-362 -363 -371 373 0
-362 363 371 373 0
362 -373 0
362 -363 371 0
362 363 -371 0
363 4 251 364 -365 0
-363 365 0
-363 -4 0
-363 -364 0
-363 -251 0
-364 231 237 0
364 -231 0
364 -237 0
365 234 248 366 -367 0
-365 367 0
-365 -366 0
-365 -234 0
-365 -248 0
366 -235 252 0
-366 235 0
-366 -252 0
367 -420 368 369 370 0
-367 -370 0
-367 -369 0
-367 420 0
-367 -368 0
368 -242 252 0
-368 242 0
-368 -252 0
369 -243 252 0
-369 243 0
-369 -252 0
370 252 -249 0
-370 -252 0
-370 249 0
371 -258 -367 -372 0
-371 258 0
-371 367 0
-371 372 0
-372 417 252 289 0
372 -289 0
372 -252 0
372 -417 0
-373 374 377 -378 -379 0
-373 -374 -377 -378 -379 0
-373 374 377 378 379 0
-373 -374 -377 378 379 0
373 374 -377 0
373 -374 377 0
373 378 -379 0
373 -378 379 0
374 5 224 247 -375 0
-374 375 0
-374 -5 0
-374 -247 0
-374 -224 0
375 -418 229 366 376 0
-375 -376 0
-375 418 0
-375 -229 0
-375 -366 0
-376 175 217 0
376 -175 0
376 -217 0
377 -418 -258 -372 0
-377 418 0
-377 372 0
-377 258 0
378 -416 4 229 247 0
-378 -247 0
-378 416 0
-378 -229 0
-378 -4 0
379 -416 -258 0
-379 416 0
-379 258 0
380 381 -385 0
380 -381 385 0
-380 -381 -385 0
-380 381 385 0
381 4 366 -382 383 0
-381 -383 0
-381 -4 0
-381 382 0
-381 -366 0
382 -419 368 369 0
-382 419 0
-382 -369 0
-382 -368 0
-383 238 248 251 384 0
383 -238 0
383 -384 0
383 -251 0
383 -248 0
-384 230 244 0
384 -230 0
384 -244 0
385 -258 -372 -386 0
-385 386 0
-385 372 0
-385 258 0
386 -419 -387 -388 0
386 -419 -293 -388 0
-386 388 0
-386 419 0
-386 293 387 0
-387 417 252 0
387 -417 0
387 -252 0
388 -252 0
388 -417 -292 0
388 -262 -292 0
-388 252 292 0
-388 417 252 262 0
-453 0
2 0

